p knf 49 92
-1 -8 -2 -9 0
-1 -15 -3 -17 0
-1 -22 -4 -25 0
-1 -29 -5 -33 0
-1 -36 -6 -41 0
-1 -43 -7 -49 0
-2 -9 -3 -10 0
-2 -16 -4 -18 0
-2 -23 -5 -26 0
-2 -30 -6 -34 0
-2 -37 -7 -42 0
-3 -10 -4 -11 0
-3 -17 -5 -19 0
-3 -24 -6 -27 0
-3 -31 -7 -35 0
-4 -11 -5 -12 0
-4 -18 -6 -20 0
-4 -25 -7 -28 0
-5 -12 -6 -13 0
-5 -19 -7 -21 0
-6 -13 -7 -14 0
-8 -15 -9 -16 0
-8 -22 -10 -24 0
-8 -29 -11 -32 0
-8 -36 -12 -40 0
-8 -43 -13 -48 0
-9 -16 -10 -17 0
-9 -23 -11 -25 0
-9 -30 -12 -33 0
-9 -37 -13 -41 0
-9 -44 -14 -49 0
-10 -17 -11 -18 0
-10 -24 -12 -26 0
-10 -31 -13 -34 0
-10 -38 -14 -42 0
-11 -18 -12 -19 0
-11 -25 -13 -27 0
-11 -32 -14 -35 0
-12 -19 -13 -20 0
-12 -26 -14 -28 0
-13 -20 -14 -21 0
-15 -22 -16 -23 0
-15 -29 -17 -31 0
-15 -36 -18 -39 0
-15 -43 -19 -47 0
-16 -23 -17 -24 0
-16 -30 -18 -32 0
-16 -37 -19 -40 0
-16 -44 -20 -48 0
-17 -24 -18 -25 0
-17 -31 -19 -33 0
-17 -38 -20 -41 0
-17 -45 -21 -49 0
-18 -25 -19 -26 0
-18 -32 -20 -34 0
-18 -39 -21 -42 0
-19 -26 -20 -27 0
-19 -33 -21 -35 0
-20 -27 -21 -28 0
-22 -29 -23 -30 0
-22 -36 -24 -38 0
-22 -43 -25 -46 0
-23 -30 -24 -31 0
-23 -37 -25 -39 0
-23 -44 -26 -47 0
-24 -31 -25 -32 0
-24 -38 -26 -40 0
-24 -45 -27 -48 0
-25 -32 -26 -33 0
-25 -39 -27 -41 0
-25 -46 -28 -49 0
-26 -33 -27 -34 0
-26 -40 -28 -42 0
-27 -34 -28 -35 0
-29 -36 -30 -37 0
-29 -43 -31 -45 0
-30 -37 -31 -38 0
-30 -44 -32 -46 0
-31 -38 -32 -39 0
-31 -45 -33 -47 0
-32 -39 -33 -40 0
-32 -46 -34 -48 0
-33 -40 -34 -41 0
-33 -47 -35 -49 0
-34 -41 -35 -42 0
-36 -43 -37 -44 0
-37 -44 -38 -45 0
-38 -45 -39 -46 0
-39 -46 -40 -47 0
-40 -47 -41 -48 0
-41 -48 -42 -49 0
k 32 1 2 3 4 5 6 7 8 9 10 11 12 13 14 15 16 17 18 19 20 21 22 23 24 25 26 27 28 29 30 31 32 33 34 35 36 37 38 39 40 41 42 43 44 45 46 47 48 49 0
